c 95_4_checker.cnf
c
c field = 95
c formula set type = 4_checker
c
p cnf 5 74
180 
182 
184 
186 
-190 
181 
183 
185 
187 
-191 
182 
184 
186 
190 
-180 
183 
185 
187 
191 
-181 
182 
184 
186 
190 
-192 
183 
185 
187 
191 
-193 
184 
186 
190 
192 
-182 
185 
187 
191 
193 
-183 
184 
186 
190 
192 
-194 
185 
187 
191 
193 
-195 
186 
190 
192 
194 
-184 
187 
191 
193 
195 
-185 
186 
190 
192 
194 
-196 
187 
191 
193 
195 
-197 
190 
192 
194 
196 
-186 
191 
193 
195 
197 
-187 
190 
192 
194 
196 
-198 
191 
193 
195 
197 
-199 
68 
98 
128 
158 
-38 
69 
99 
129 
159 
-39 
68 
98 
128 
158 
-218 
69 
99 
129 
159 
-219 
98 
128 
158 
218 
-68 
99 
129 
159 
219 
-69 
98 
128 
158 
218 
-248 
99 
129 
159 
219 
-249 
128 
158 
218 
248 
-98 
129 
159 
219 
249 
-99 
128 
158 
218 
248 
-278 
129 
159 
219 
249 
-279 
158 
218 
248 
278 
-128 
159 
219 
249 
279 
-129 
158 
218 
248 
278 
-308 
159 
219 
249 
279 
-309 
218 
248 
278 
308 
-158 
219 
249 
279 
309 
-159 
218 
248 
278 
308 
-338 
219 
249 
279 
309 
-339 
60 
92 
124 
156 
-220 
61 
93 
125 
157 
-221 
92 
124 
156 
220 
-60 
93 
125 
157 
221 
-61 
92 
124 
156 
220 
-252 
93 
125 
157 
221 
-253 
124 
156 
220 
252 
-92 
125 
157 
221 
253 
-93 
124 
156 
220 
252 
-284 
125 
157 
221 
253 
-285 
156 
220 
252 
284 
-124 
157 
221 
253 
285 
-125 
156 
220 
252 
284 
-316 
157 
221 
253 
285 
-317 
220 
252 
284 
316 
-156 
221 
253 
285 
317 
-157 
220 
252 
284 
316 
-348 
221 
253 
285 
317 
-349 
76 
104 
132 
160 
-48 
77 
105 
133 
161 
-49 
76 
104 
132 
160 
-216 
77 
105 
133 
161 
-217 
104 
132 
160 
216 
-76 
105 
133 
161 
217 
-77 
104 
132 
160 
216 
-244 
105 
133 
161 
217 
-245 
132 
160 
216 
244 
-104 
133 
161 
217 
245 
-105 
132 
160 
216 
244 
-272 
133 
161 
217 
245 
-273 
160 
216 
244 
272 
-132 
161 
217 
245 
273 
-133 
160 
216 
244 
272 
-300 
161 
217 
245 
273 
-301 
216 
244 
272 
300 
-160 
217 
245 
273 
301 
-161 
